presolving:
(round 1, fast)       77 del vars, 0 del conss, 0 add conss, 0 chg bounds, 0 chg sides, 0 chg coeffs, 0 upgd conss, 0 impls, 152 clqs
(round 2, exhaustive) 77 del vars, 0 del conss, 0 add conss, 0 chg bounds, 0 chg sides, 0 chg coeffs, 152 upgd conss, 0 impls, 152 clqs
   (0.0s) probing: 51/5700 (0.9%) - 0 fixings, 0 aggregations, 0 implications, 0 bound changes
   (0.0s) probing aborted: 50/50 successive totally useless probings
   Deactivated symmetry handling methods, since SCIP was built without symmetry detector (SYM=none).
presolving (3 rounds: 3 fast, 2 medium, 2 exhaustive):
 77 deleted vars, 0 deleted constraints, 0 added constraints, 0 tightened bounds, 0 added holes, 0 changed sides, 0 changed coefficients
 0 implications, 152 cliques
presolved problem has 5775 variables (5700 bin, 0 int, 0 impl, 75 cont) and 5702 constraints
    152 constraints of type <setppc>
   5550 constraints of type <linear>
Presolving Time: 0.00

 time | node  | left  |LP iter|LP it/n|mem/heur|mdpt |vars |cons |rows |cuts |sepa|confs|strbr|  dualbound   | primalbound  |  gap   | compl. 
p 0.0s|     1 |     0 |    47 |     - | vbounds|   0 |5775 |5708 |5702 |   0 |  0 |   5 |   0 | 0.000000e+00 | 1.559434e+05 |    Inf | unknown
  0.0s|     1 |     0 |   275 |     - |    80M |   0 |5775 |5708 |5702 |   0 |  0 |   5 |   0 | 7.766213e+04 | 1.559434e+05 | 100.80%| unknown
  0.0s|     1 |     0 |   363 |     - |    82M |   0 |5775 |5708 |5755 |  53 |  1 |   5 |   0 | 9.585670e+04 | 1.559434e+05 |  62.68%| unknown
  1.0s|     1 |     0 |   432 |     - |    83M |   0 |5775 |5709 |5788 |  86 |  2 |   6 |   0 | 9.851957e+04 | 1.559434e+05 |  58.29%| unknown
  1.0s|     1 |     0 |   460 |     - |    84M |   0 |5775 |5710 |5800 |  98 |  3 |   7 |   0 | 9.899394e+04 | 1.559434e+05 |  57.53%| unknown
  1.0s|     1 |     0 |   462 |     - |    86M |   0 |5775 |5711 |5802 | 100 |  4 |   8 |   0 | 9.899394e+04 | 1.559434e+05 |  57.53%| unknown
  1.0s|     1 |     0 |   498 |     - |    87M |   0 |5775 |5712 |5826 | 124 |  5 |   9 |   0 | 9.899394e+04 | 1.559434e+05 |  57.53%| unknown
  1.0s|     1 |     0 |   508 |     - |    88M |   0 |5775 |5713 |5830 | 128 |  6 |  10 |   0 | 9.899394e+04 | 1.559434e+05 |  57.53%| unknown
  1.0s|     1 |     0 |   511 |     - |    89M |   0 |5775 |5714 |5832 | 130 |  7 |  11 |   0 | 9.899394e+04 | 1.559434e+05 |  57.53%| unknown
  1.0s|     1 |     0 |   528 |     - |    89M |   0 |5775 |5714 |5837 | 135 |  8 |  11 |   0 | 9.965906e+04 | 1.559434e+05 |  56.48%| unknown
  1.0s|     1 |     0 |   551 |     - |    90M |   0 |5775 |5715 |5846 | 144 |  9 |  12 |   0 | 9.966477e+04 | 1.559434e+05 |  56.47%| unknown
  1.0s|     1 |     0 |   573 |     - |    91M |   0 |5775 |5716 |5856 | 154 | 10 |  13 |   0 | 1.009741e+05 | 1.559434e+05 |  54.44%| unknown
  1.0s|     1 |     0 |   585 |     - |    92M |   0 |5775 |5717 |5862 | 160 | 11 |  14 |   0 | 1.009762e+05 | 1.559434e+05 |  54.44%| unknown
  1.0s|     1 |     0 |   603 |     - |    92M |   0 |5775 |5718 |5870 | 168 | 12 |  15 |   0 | 1.021347e+05 | 1.559434e+05 |  52.68%| unknown
  2.0s|     1 |     0 |   613 |     - |    93M |   0 |5775 |5719 |5876 | 174 | 13 |  16 |   0 | 1.022331e+05 | 1.559434e+05 |  52.54%| unknown
 time | node  | left  |LP iter|LP it/n|mem/heur|mdpt |vars |cons |rows |cuts |sepa|confs|strbr|  dualbound   | primalbound  |  gap   | compl. 
  2.0s|     1 |     0 |   640 |     - |    93M |   0 |5775 |5719 |5885 | 183 | 14 |  16 |   0 | 1.029861e+05 | 1.559434e+05 |  51.42%| unknown
  2.0s|     1 |     0 |   666 |     - |    94M |   0 |5775 |5720 |5856 | 207 | 15 |  17 |   0 | 1.029861e+05 | 1.559434e+05 |  51.42%| unknown
  2.0s|     1 |     0 |   683 |     - |    94M |   0 |5775 |5721 |5866 | 217 | 16 |  18 |   0 | 1.031531e+05 | 1.559434e+05 |  51.18%| unknown
  2.0s|     1 |     0 |   697 |     - |    95M |   0 |5775 |5722 |5876 | 227 | 17 |  19 |   0 | 1.031531e+05 | 1.559434e+05 |  51.18%| unknown
  2.0s|     1 |     0 |   699 |     - |    95M |   0 |5775 |5723 |5878 | 229 | 18 |  20 |   0 | 1.031531e+05 | 1.559434e+05 |  51.18%| unknown
  2.0s|     1 |     0 |   704 |     - |    96M |   0 |5775 |5724 |5880 | 231 | 19 |  21 |   0 | 1.031531e+05 | 1.559434e+05 |  51.18%| unknown
  2.0s|     1 |     0 |   708 |     - |    96M |   0 |5775 |5724 |5883 | 234 | 20 |  21 |   0 | 1.031687e+05 | 1.559434e+05 |  51.15%| unknown
  2.0s|     1 |     0 |   733 |     - |    96M |   0 |5775 |5724 |5852 | 241 | 21 |  21 |   0 | 1.035585e+05 | 1.559434e+05 |  50.58%| unknown
  2.0s|     1 |     0 |   745 |     - |    96M |   0 |5775 |5725 |5856 | 245 | 22 |  22 |   0 | 1.035875e+05 | 1.559434e+05 |  50.54%| unknown
  2.0s|     1 |     0 |   746 |     - |    96M |   0 |5775 |5726 |5857 | 246 | 23 |  23 |   0 | 1.035875e+05 | 1.559434e+05 |  50.54%| unknown
  3.0s|     1 |     0 |   755 |     - |    96M |   0 |5775 |5727 |5863 | 252 | 24 |  24 |   0 | 1.035875e+05 | 1.559434e+05 |  50.54%| unknown
  3.0s|     1 |     0 |   766 |     - |    96M |   0 |5775 |5728 |5871 | 260 | 25 |  25 |   0 | 1.036522e+05 | 1.559434e+05 |  50.45%| unknown
  3.0s|     1 |     0 |   772 |     - |    96M |   0 |5775 |5728 |5875 | 264 | 26 |  25 |   0 | 1.036522e+05 | 1.559434e+05 |  50.45%| unknown
  3.0s|     1 |     0 |   780 |     - |    96M |   0 |5775 |5729 |5837 | 270 | 28 |  26 |   0 | 1.036551e+05 | 1.559434e+05 |  50.44%| unknown
  3.0s|     1 |     0 |   784 |     - |    96M |   0 |5775 |5730 |5841 | 274 | 29 |  27 |   0 | 1.036551e+05 | 1.559434e+05 |  50.44%| unknown
 time | node  | left  |LP iter|LP it/n|mem/heur|mdpt |vars |cons |rows |cuts |sepa|confs|strbr|  dualbound   | primalbound  |  gap   | compl. 
 10.0s|     1 |     2 |  5455 |     - |    98M |   0 |5775 |5757 |5841 | 274 | 31 |  54 |  21 | 1.037057e+05 | 1.559434e+05 |  50.37%| unknown
  129s|   100 |   101 | 14273 | 136.7 |   111M |  23 |5775 |5777 |5810 | 513 |  1 |  74 |1173 | 1.039657e+05 | 1.559434e+05 |  50.00%| unknown
d 135s|   111 |   112 | 15056 | 130.2 |linesear|  23 |5775 |5760 |5837 |   0 |  1 |  77 |1236 | 1.039657e+05 | 1.446654e+05 |  39.15%| unknown
  155s|   200 |   199 | 20811 | 100.9 |   118M |  23 |5775 |5793 |5834 | 670 |  2 | 110 |1401 | 1.040316e+05 | 1.446654e+05 |  39.06%| unknown
  168s|   300 |   299 | 28497 |  92.8 |   121M |  23 |5775 |5797 |5813 | 843 |  1 | 114 |1471 | 1.043830e+05 | 1.446654e+05 |  38.59%| unknown
L 169s|   311 |   310 | 28873 |  90.8 |    rins|  23 |5775 |5767 |5823 | 853 |  1 | 114 |1475 | 1.043830e+05 | 1.271828e+05 |  21.84%| unknown
  180s|   400 |   399 | 34837 |  85.5 |   125M |  23 |5775 |5815 |5810 |1026 |  1 | 162 |1528 | 1.043830e+05 | 1.271828e+05 |  21.84%| unknown
  191s|   500 |   499 | 41906 |  82.5 |   128M |  23 |5775 |5903 |5813 |1184 |  1 | 251 |1576 | 1.044436e+05 | 1.271828e+05 |  21.77%| unknown
  202s|   600 |   597 | 49011 |  80.6 |   132M |  23 |5775 |5975 |5823 |1335 |  1 | 323 |1615 | 1.044436e+05 | 1.271828e+05 |  21.77%| unknown
  213s|   700 |   695 | 53656 |  75.7 |   134M |  28 |5775 |6019 |5844 |1478 |  3 | 367 |1672 | 1.044481e+05 | 1.271828e+05 |  21.77%| unknown
  224s|   800 |   795 | 60684 |  75.0 |   135M |  28 |5775 |6093 |5831 |1647 |  3 | 441 |1719 | 1.044490e+05 | 1.271828e+05 |  21.77%| unknown
  235s|   900 |   895 | 67730 |  74.5 |   137M |  28 |5775 |6156 |5823 |1798 |  1 | 504 |1758 | 1.044490e+05 | 1.271828e+05 |  21.77%| unknown
  244s|  1000 |   995 | 71843 |  71.2 |   139M |  31 |5775 |6231 |5829 |1913 |  3 | 579 |1807 | 1.044490e+05 | 1.271828e+05 |  21.77%| unknown
Restart triggered after 50 consecutive estimations that the remaining tree will be large
(run 1, node 1049) performing user restart

(restart) converted 105 cuts from the global cut pool into linear constraints

presolving:
(round 1, exhaustive) 0 del vars, 0 del conss, 0 add conss, 0 chg bounds, 0 chg sides, 0 chg coeffs, 52 upgd conss, 0 impls, 215 clqs
(round 2, fast)       0 del vars, 16 del conss, 0 add conss, 0 chg bounds, 0 chg sides, 0 chg coeffs, 52 upgd conss, 13 impls, 215 clqs
(round 3, exhaustive) 0 del vars, 21 del conss, 1 add conss, 0 chg bounds, 1 chg sides, 85 chg coeffs, 52 upgd conss, 13 impls, 215 clqs
presolving (4 rounds: 4 fast, 3 medium, 3 exhaustive):
 0 deleted vars, 21 deleted constraints, 1 added constraints, 0 tightened bounds, 0 added holes, 1 changed sides, 203 changed coefficients
 13 implications, 215 cliques
presolved problem has 5775 variables (5700 bin, 0 int, 0 impl, 75 cont) and 6380 constraints
     13 constraints of type <varbound>
      9 constraints of type <knapsack>
    215 constraints of type <setppc>
   5604 constraints of type <linear>
    513 constraints of type <logicor>
     26 constraints of type <bounddisjunction>
Presolving Time: 0.00
transformed 4/4 original solutions to the transformed problem space

 time | node  | left  |LP iter|LP it/n|mem/heur|mdpt |vars |cons |rows |cuts |sepa|confs|strbr|  dualbound   | primalbound  |  gap   | compl. 
  248s|     1 |     0 | 74313 |     - |   142M |   0 |5775 |6380 |5807 |   0 |  0 | 644 |1829 | 1.044490e+05 | 1.271828e+05 |  21.77%| unknown
  248s|     1 |     0 | 74368 |     - |   143M |   0 |5775 |6380 |5860 |  53 |  1 | 644 |1829 | 1.044490e+05 | 1.271828e+05 |  21.77%| unknown
  249s|     1 |     0 | 74385 |     - |   143M |   0 |5775 |6380 |5874 |  67 |  2 | 644 |1829 | 1.044490e+05 | 1.271828e+05 |  21.77%| unknown
  249s|     1 |     0 | 74392 |     - |   144M |   0 |5775 |6380 |5882 |  75 |  3 | 644 |1829 | 1.044490e+05 | 1.271828e+05 |  21.77%| unknown
  249s|     1 |     0 | 74393 |     - |   144M |   0 |5775 |6390 |5883 |  76 |  4 | 654 |1829 | 1.044490e+05 | 1.271828e+05 |  21.77%| unknown
  254s|     1 |     2 | 77409 |     - |   145M |   0 |5775 |6394 |5883 |  76 |  6 | 658 |1854 | 1.044490e+05 | 1.271828e+05 |  21.77%| unknown
  306s|   100 |   101 | 82584 |  71.0 |   145M |  29 |5775 |6480 |5844 | 222 |  2 | 745 |2324 | 1.044490e+05 | 1.271828e+05 |  21.77%| unknown
  316s|   200 |   201 | 88424 |  69.9 |   146M |  31 |5775 |6519 |5826 | 405 |  1 | 785 |2371 | 1.044490e+05 | 1.271828e+05 |  21.77%| unknown
  323s|   300 |   301 | 92767 |  68.0 |   146M |  33 |5775 |6609 |5824 | 521 |  1 | 875 |2405 | 1.044490e+05 | 1.271828e+05 |  21.77%| unknown
  332s|   400 |   401 | 97671 |  66.7 |   150M |  33 |5775 |6662 |5824 | 787 |  1 | 928 |2436 | 1.044490e+05 | 1.271828e+05 |  21.77%| unknown
  341s|   500 |   501 |102741 |  65.6 |   152M |  34 |5775 |6712 |5818 | 950 |  1 | 981 |2477 | 1.044490e+05 | 1.271828e+05 |  21.77%| unknown
  349s|   600 |   601 |107015 |  64.2 |   152M |  36 |5775 |6768 |5827 |1035 |  1 |1039 |2511 | 1.044490e+05 | 1.271828e+05 |  21.77%| unknown
  356s|   700 |   701 |111664 |  63.2 |   153M |  38 |5775 |6809 |5828 |1111 |  1 |1080 |2550 | 1.044490e+05 | 1.271828e+05 |  21.77%| unknown
  362s|   800 |   799 |115759 |  62.0 |   154M |  41 |5775 |6868 |5826 |1160 |  1 |1140 |2578 | 1.044490e+05 | 1.271828e+05 |  21.77%| unknown
  370s|   900 |   897 |120238 |  61.1 |   154M |  42 |5775 |6929 |5839 |1239 |  1 |1202 |2607 | 1.044490e+05 | 1.271828e+05 |  21.77%| unknown
 time | node  | left  |LP iter|LP it/n|mem/heur|mdpt |vars |cons |rows |cuts |sepa|confs|strbr|  dualbound   | primalbound  |  gap   | compl. 
  381s|  1000 |   997 |126987 |  61.5 |   155M |  42 |5775 |7010 |5814 |1476 |  1 |1298 |2652 | 1.044490e+05 | 1.271828e+05 |  21.77%| unknown
  391s|  1100 |  1097 |131933 |  60.9 |   159M |  57 |5775 |7120 |5824 |1617 |  1 |1423 |2689 | 1.044490e+05 | 1.271828e+05 |  21.77%| unknown
  402s|  1200 |  1195 |138451 |  61.1 |   159M |  57 |5775 |7253 |5826 |1759 |  1 |1580 |2726 | 1.044490e+05 | 1.271828e+05 |  21.77%| unknown
L 412s|  1289 |  1284 |145398 |  61.7 |    rins|  57 |5775 |7355 |5827 |1826 |  1 |1707 |2744 | 1.044490e+05 | 1.253796e+05 |  20.04%| unknown
  413s|  1300 |  1295 |145882 |  61.6 |   161M |  57 |5775 |7360 |5829 |1835 |  1 |1717 |2748 | 1.044490e+05 | 1.253796e+05 |  20.04%| unknown
  425s|  1400 |  1395 |153027 |  62.0 |   162M |  57 |5775 |7518 |5830 |1993 |  1 |1910 |2784 | 1.044490e+05 | 1.253796e+05 |  20.04%| unknown
  435s|  1500 |  1493 |159002 |  62.0 |   163M |  57 |5775 |7636 |5827 |2045 |  1 |2087 |2817 | 1.044490e+05 | 1.253796e+05 |  20.04%| unknown
  442s|  1600 |  1589 |163821 |  61.4 |   165M |  57 |5775 |7728 |5839 |2114 |  3 |2229 |2834 | 1.044490e+05 | 1.253796e+05 |  20.04%| unknown
  451s|  1700 |  1685 |172415 |  62.3 |   165M |  57 |5775 |7817 |5830 |2180 |  1 |2367 |2857 | 1.044490e+05 | 1.253796e+05 |  20.04%| unknown
  459s|  1800 |  1785 |178274 |  62.2 |   167M |  57 |5775 |7921 |5830 |2215 |  2 |2541 |2871 | 1.044490e+05 | 1.253796e+05 |  20.04%| unknown
L 466s|  1868 |  1849 |185893 |  63.4 |    rins|  57 |5775 |7966 |5826 |2231 |  1 |2613 |2883 | 1.044490e+05 | 1.238168e+05 |  18.54%| unknown
  468s|  1900 |  1881 |187271 |  63.1 |   167M |  57 |5775 |7958 |5827 |2239 |  2 |2643 |2889 | 1.044490e+05 | 1.238168e+05 |  18.54%| unknown
  475s|  2000 |  1981 |192174 |  62.7 |   168M |  57 |5775 |8003 |5837 |2292 |  1 |2772 |2909 | 1.044490e+05 | 1.238168e+05 |  18.54%| unknown
  482s|  2100 |  2081 |196940 |  62.2 |   169M |  57 |5775 |8049 |5828 |2339 |  2 |2902 |2920 | 1.044490e+05 | 1.238168e+05 |  18.54%| unknown
  491s|  2200 |  2181 |203155 |  62.2 |   170M |  64 |5775 |8095 |5824 |2450 |  1 |3085 |2937 | 1.044490e+05 | 1.238168e+05 |  18.54%| unknown
 time | node  | left  |LP iter|LP it/n|mem/heur|mdpt |vars |cons |rows |cuts |sepa|confs|strbr|  dualbound   | primalbound  |  gap   | compl. 
  500s|  2300 |  2281 |207597 |  61.7 |   171M |  64 |5775 |8106 |5835 |2499 |  2 |3213 |2970 | 1.044490e+05 | 1.238168e+05 |  18.54%| unknown
  507s|  2400 |  2381 |215063 |  62.0 |   173M |  64 |5775 |8138 |5826 |2559 |  1 |3345 |2978 | 1.044490e+05 | 1.238168e+05 |  18.54%| unknown
  514s|  2500 |  2481 |219015 |  61.4 |   175M |  64 |5775 |8139 |5823 |2596 |  1 |3446 |2994 | 1.044490e+05 | 1.238168e+05 |  18.54%| unknown
  523s|  2600 |  2581 |223959 |  61.1 |   176M |  64 |5775 |8137 |5833 |2679 |  1 |3584 |3019 | 1.044490e+05 | 1.238168e+05 |  18.54%| unknown
  529s|  2700 |  2677 |227033 |  60.3 |   178M |  64 |5775 |8111 |5828 |2738 |  1 |3678 |3034 | 1.044490e+05 | 1.238168e+05 |  18.54%| unknown
  535s|  2800 |  2769 |230732 |  59.7 |   180M |  64 |5775 |8135 |5832 |2849 |  1 |3784 |3046 | 1.044490e+05 | 1.238168e+05 |  18.54%| unknown
  542s|  2900 |  2869 |234768 |  59.2 |   181M |  64 |5775 |8164 |5829 |2973 |  1 |3878 |3053 | 1.044490e+05 | 1.238168e+05 |  18.54%| unknown
  549s|  3000 |  2967 |240911 |  59.2 |   182M |  64 |5775 |8192 |5833 |3143 |  1 |3990 |3060 | 1.044551e+05 | 1.238168e+05 |  18.54%| unknown
  555s|  3100 |  3055 |245385 |  58.9 |   183M |  64 |5775 |8265 |5829 |3190 |  1 |4105 |3062 | 1.044551e+05 | 1.238168e+05 |  18.54%| unknown
  560s|  3200 |  3155 |249016 |  58.4 |   184M |  64 |5775 |8308 |5831 |3262 |  2 |4236 |3063 | 1.044699e+05 | 1.238168e+05 |  18.52%| unknown
  569s|  3300 |  3253 |254187 |  58.2 |   185M |  64 |5775 |8334 |5828 |3485 |  1 |4371 |3072 | 1.044725e+05 | 1.238168e+05 |  18.52%| unknown
  573s|  3400 |  3353 |256525 |  57.4 |   186M |  64 |5775 |8392 |5823 |3496 |  1 |4471 |3077 | 1.044725e+05 | 1.238168e+05 |  18.52%| unknown
  580s|  3500 |  3449 |260413 |  57.0 |   186M |  64 |5775 |8515 |5825 |3590 |  1 |4643 |3091 | 1.044774e+05 | 1.238168e+05 |  18.51%| unknown
  586s|  3600 |  3547 |263188 |  56.4 |   187M |  64 |5775 |8524 |5828 |3648 |  1 |4717 |3107 | 1.044800e+05 | 1.238168e+05 |  18.51%| unknown
  591s|  3700 |  3647 |267042 |  56.0 |   188M |  64 |5775 |8542 |5826 |3747 |  1 |4812 |3108 | 1.044850e+05 | 1.238168e+05 |  18.50%| unknown
 time | node  | left  |LP iter|LP it/n|mem/heur|mdpt |vars |cons |rows |cuts |sepa|confs|strbr|  dualbound   | primalbound  |  gap   | compl. 
  597s|  3800 |  3747 |272872 |  56.1 |   188M |  64 |5775 |8590 |5832 |3817 |  1 |4944 |3112 | 1.045052e+05 | 1.238168e+05 |  18.48%| unknown

SCIP Status        : solving was interrupted [time limit reached]
Solving Time (sec) : 600.00
Solving Nodes      : 3833 (total of 4882 nodes in 2 runs)
Primal Bound       : +1.23816773663212e+05 (8 solutions)
Dual Bound         : +1.04505217330213e+05
Gap                : 18.48 %
Trying to solve problem with MTZ Solver Method...
Starting Solver, time limit setted to 10 minutes
Route:  [[0, 75], [1, 2], [2, 3], [3, 5], [4, 27], [5, 6], [6, 7], [7, 8], [8, 9], [9, 10], [10, 11], [11, 73], [12, 14], [13, 12], [14, 15], [15, 16], [16, 17], [17, 36], [18, 30], [19, 4], [20, 21], [21, 22], [22, 0], [23, 24], [24, 20], [25, 29], [26, 25], [27, 26], [28, 33], [29, 28], [30, 19], [31, 32], [32, 41], [33, 34], [34, 31], [35, 37], [36, 18], [37, 38], [38, 39], [39, 40], [40, 59], [41, 52], [42, 35], [43, 44], [44, 45], [45, 23], [46, 47], [47, 43], [48, 49], [49, 67], [50, 54], [51, 48], [52, 53], [53, 42], [54, 55], [55, 51], [56, 62], [57, 56], [58, 60], [59, 58], [60, 61], [61, 57], [62, 63], [63, 72], [64, 65], [65, 50], [66, 68], [67, 69], [68, 46], [69, 66], [70, 64], [71, 70], [72, 71], [73, 13], [74, 1], [75, 74]]
An Otimal Solution was found, yay!
Objective value: 123816.8
Problem solved in 274403 iterations
Problem solved in 4882 nodes
Final Route Configuration succesfully created at:
data/routes/pr76.csv
